job_count = 16 ;
duration = [|18, 6|19, 3|2, 5|16, 5|4, 8|12, 6|6, 4|6, 5|2, 8|17, 5|13, 1|2, 6|17, 1|6, 7|18, 7|4, 1|] ;
machine_count = 2 ;
cost = [|17, 36|19, 28|11, 24|10, 25|16, 23|11, 20|18, 31|19, 30|19, 39|16, 29|12, 33|11, 34|19, 39|17, 38|19, 36|17, 28|] ;
deadline = [40, 40, 40, 40, 40, 40, 40, 40, 40, 40, 40, 40, 40, 40, 40, 40] ;
release = [0, 0, 0, 0, 0, 0, 0, 0, 0, 0, 0, 0, 0, 0, 0, 0] ;
resource = [|2, 2|8, 8|5, 5|3, 3|3, 3|5, 5|7, 7|1, 1|5, 5|8, 8|6, 6|1, 1|7, 7|4, 4|6, 6|2, 2|] ;
capacities = [10, 10] ;
